etc/upTests/tupley12-2-s2-3/0004.eprime.solution
language ESSENCE' 1.0
$ minion Nodes: 1
$ minion TotalTime: 0.000575
$ Savile Row TotalTime: 0.355
letting pain_tuple2_SetOccurrence be [[true;int(9)], 
[true;int(9)];int(1..2)]
letting pain_tuple1_SetOccurrence be [[true;int(5)], 
[true;int(5)];int(1..2)]
